Geographic Exponential Decay
20 2 142 298 271 57 204 227 80 285 131 249 85 46 92 91 262 290 40 23 153
p edge 320 321
e 0 202 1.0
e 0 69 6.0
e 1 31 6.0
e 1 0 24.0
e 2 26 74.0
e 2 306 6.0
e 2 65 65.0
e 2 4 92.0
e 2 28 92.0
e 2 1 53.0
e 3 211 4.0
e 3 2 97.0
e 5 297 4.0
e 5 3 2.0
e 6 146 1.0
e 6 5 1.0
e 7 261 17.0
e 7 229 19.0
e 7 6 24.0
e 8 296 3.0
e 8 7 10.0
e 9 36 2.0
e 9 8 3.0
e 10 91 96.0
e 10 9 7.0
e 11 158 2.0
e 11 10 3.0
e 12 219 2.0
e 12 11 1.0
e 13 175 2.0
e 13 12 1.0
e 14 136 1.0
e 14 13 2.0
e 15 301 34.0
e 15 14 1.0
e 16 17 1.0
e 16 15 9.0
e 18 46 50.0
e 18 16 12.0
e 19 174 1.0
e 19 18 1.0
e 20 105 1.0
e 20 19 1.0
e 21 203 1.0
e 21 20 1.0
e 22 168 4.0
e 22 21 5.0
e 23 30 8.0
e 23 199 98.0
e 23 27 65.0
e 23 151 21.0
e 23 166 67.0
e 23 22 13.0
e 24 134 44.0
e 24 98 5.0
e 24 23 33.0
e 25 123 1.0
e 25 24 23.0
e 29 252 1.0
e 29 25 1.0
e 32 77 3.0
e 32 29 11.0
e 33 34 1.0
e 33 32 9.0
e 35 236 2.0
e 35 33 1.0
e 37 258 1.0
e 37 35 1.0
e 38 171 1.0
e 38 37 3.0
e 39 188 2.0
e 39 38 6.0
e 40 167 95.0
e 40 310 60.0
e 40 279 73.0
e 40 197 1.0
e 40 187 87.0
e 40 39 37.0
e 41 208 1.0
e 41 40 27.0
e 42 234 1.0
e 42 41 2.0
e 43 231 2.0
e 43 42 3.0
e 44 124 1.0
e 44 43 1.0
e 45 304 2.0
e 45 44 3.0
e 46 179 13.0
e 46 198 70.0
e 46 145 91.0
e 46 237 42.0
e 47 56 4.0
e 47 45 5.0
e 48 246 1.0
e 48 47 1.0
e 49 96 2.0
e 49 48 3.0
e 50 75 1.0
e 50 49 2.0
e 51 130 1.0
e 51 50 1.0
e 52 221 4.0
e 52 51 2.0
e 53 54 1.0
e 53 52 1.0
e 55 305 3.0
e 55 53 2.0
e 57 58 47.0
e 57 59 5.0
e 57 235 77.0
e 57 73 77.0
e 57 213 19.0
e 57 55 87.0
e 60 169 3.0
e 60 57 1.0
e 61 85 64.0
e 61 60 1.0
e 62 285 64.0
e 63 266 1.0
e 63 61 1.0
e 64 276 1.0
e 64 63 5.0
e 66 200 1.0
e 66 64 5.0
e 67 68 3.0
e 67 66 1.0
e 70 272 1.0
e 70 67 2.0
e 71 284 2.0
e 71 70 1.0
e 72 106 11.0
e 72 74 11.0
e 72 71 25.0
e 76 78 31.0
e 76 295 8.0
e 76 190 32.0
e 76 72 43.0
e 79 204 34.0
e 79 76 35.0
e 80 81 84.0
e 80 125 51.0
e 80 82 47.0
e 80 126 80.0
e 80 83 38.0
e 81 82 19.0
e 81 84 23.0
e 82 85 15.0
e 85 99 45.0
e 85 155 70.0
e 85 108 7.0
e 86 251 3.0
e 87 88 5.0
e 87 79 1.0
e 89 90 1.0
e 89 87 1.0
e 91 92 36.0
e 91 216 83.0
e 91 196 79.0
e 91 122 71.0
e 92 93 25.0
e 92 94 55.0
e 92 248 31.0
e 92 95 72.0
e 97 288 1.0
e 97 89 3.0
e 100 298 62.0
e 101 228 3.0
e 101 97 1.0
e 102 177 18.0
e 102 104 24.0
e 102 101 13.0
e 103 107 2.0
e 103 102 12.0
e 109 110 1.0
e 109 103 3.0
e 111 207 2.0
e 111 109 6.0
e 112 298 53.0
e 113 227 50.0
e 113 111 3.0
e 114 238 1.0
e 114 113 4.0
e 115 165 4.0
e 115 114 11.0
e 116 277 2.0
e 116 115 2.0
e 117 225 7.0
e 117 116 8.0
e 118 147 3.0
e 118 117 10.0
e 119 195 2.0
e 119 118 3.0
e 120 121 2.0
e 120 119 1.0
e 126 138 21.0
e 127 128 1.0
e 127 120 1.0
e 129 131 8.0
e 131 289 21.0
e 131 227 34.0
e 131 132 34.0
e 131 183 41.0
e 133 134 22.0
e 134 230 27.0
e 135 212 7.0
e 135 127 6.0
e 137 139 1.0
e 137 135 1.0
e 140 141 2.0
e 140 137 1.0
e 142 148 58.0
e 142 209 73.0
e 142 182 6.0
e 142 143 9.0
e 142 173 50.0
e 142 140 83.0
e 144 149 1.0
e 144 142 87.0
e 150 232 2.0
e 150 144 12.0
e 152 268 23.0
e 153 154 47.0
e 153 156 100.0
e 153 178 64.0
e 153 251 73.0
e 153 201 83.0
e 154 157 18.0
e 159 160 6.0
e 159 150 11.0
e 161 298 65.0
e 162 163 48.0
e 162 159 1.0
e 163 164 24.0
e 163 262 31.0
e 170 172 1.0
e 170 162 2.0
e 176 178 20.0
e 180 181 2.0
e 180 170 2.0
e 184 314 2.0
e 184 180 1.0
e 185 243 2.0
e 185 184 1.0
e 186 189 8.0
e 186 185 9.0
e 190 191 24.0
e 192 250 1.0
e 192 186 9.0
e 193 194 1.0
e 193 192 1.0
e 201 204 96.0
e 204 205 15.0
e 204 206 14.0
e 204 249 51.0
e 210 214 8.0
e 210 215 18.0
e 210 193 1.0
e 217 274 1.0
e 217 210 21.0
e 218 220 11.0
e 218 217 6.0
e 222 223 2.0
e 222 218 7.0
e 224 226 1.0
e 224 222 2.0
e 227 255 29.0
e 227 233 4.0
e 227 239 72.0
e 240 241 1.0
e 240 224 1.0
e 242 244 2.0
e 242 240 2.0
e 245 247 5.0
e 245 242 5.0
e 249 253 16.0
e 249 254 7.0
e 249 278 5.0
e 249 256 89.0
e 257 259 2.0
e 257 245 4.0
e 260 268 14.0
e 260 261 20.0
e 262 293 36.0
e 262 263 58.0
e 262 300 81.0
e 262 264 7.0
e 265 267 2.0
e 265 269 14.0
e 265 257 20.0
e 270 291 2.0
e 270 265 8.0
e 271 273 94.0
e 271 274 91.0
e 271 294 2.0
e 271 275 21.0
e 271 280 3.0
e 281 307 7.0
e 281 270 6.0
e 282 283 1.0
e 282 281 9.0
e 285 286 91.0
e 285 287 1.0
e 285 290 29.0
e 285 292 14.0
e 290 298 86.0
e 290 299 30.0
e 290 301 44.0
e 290 302 36.0
e 298 301 83.0
e 303 308 6.0
e 303 282 6.0
e 309 311 5.0
e 309 303 3.0
e 312 313 1.0
e 312 309 1.0
e 315 316 4.0
e 315 312 1.0
e 317 318 10.0
e 317 315 5.0
e 319 317 2.0
